Academic license - for non-commercial use only
Optimizing Gurobi model...
Optimize a model with 117216 rows, 39204 columns and 2361408 nonzeros
Variable types: 0 continuous, 39204 integer (39204 binary)
Coefficient statistics:
  Matrix range     [1e+00, 5e+01]
  Objective range  [1e+00, 1e+00]
  Bounds range     [1e+00, 1e+00]
  RHS range        [1e+00, 5e+01]
Found heuristic solution: objective 104.0000000
Presolve removed 15 rows and 5 columns (presolve time = 5s) ...
Presolve removed 24 rows and 8 columns
Presolve time: 6.50s
Presolved: 117192 rows, 39196 columns, 2361346 nonzeros
Variable types: 0 continuous, 39196 integer (39196 binary)

Root simplex log...

Iteration    Objective       Primal Inf.    Dual Inf.      Time
       0    0.0000000e+00   2.330000e+02   0.000000e+00      8s
    6901    7.6256811e-04   3.666136e+01   0.000000e+00     10s
   12058    7.6681135e-04   7.838344e-04   0.000000e+00     15s
   12884    0.0000000e+00   0.000000e+00   0.000000e+00     16s

Root relaxation: objective 0.000000e+00, 12884 iterations, 9.69 seconds
Total elapsed time = 56.24s
Total elapsed time = 60.27s

    Nodes    |    Current Node    |     Objective Bounds      |     Work
 Expl Unexpl |  Obj  Depth IntInf | Incumbent    BestBd   Gap | It/Node Time

     0     0    0.00000    0 2845  104.00000    0.00000   100%     -   66s
     0     0    0.00000    0 2814  104.00000    0.00000   100%     -  100s
     0     0    0.00000    0 2814  104.00000    0.00000   100%     -  233s
     0     0    0.00000    0 2843  104.00000    0.00000   100%     -  258s
     0     0    0.00000    0 2812  104.00000    0.00000   100%     -  258s
     0     0    0.00000    0 2935  104.00000    0.00000   100%     -  299s
     0     0    0.00000    0 2936  104.00000    0.00000   100%     -  324s
     0     0    0.00000    0 2676  104.00000    0.00000   100%     -  358s
H    0     0                      48.0000000    0.00000   100%     -  455s
     0     0    0.00000    0 2672   48.00000    0.00000   100%     -  455s
     0     0    0.00000    0 1882   48.00000    0.00000   100%     -  482s
     0     0    0.00000    0 1868   48.00000    0.00000   100%     -  610s
     0     0    0.00000    0 2441   48.00000    0.00000   100%     -  635s
     0     0    0.00000    0 2436   48.00000    0.00000   100%     -  649s
     0     2    0.00000    0 2436   48.00000    0.00000   100%     -  698s
     1     3    0.00000    1 2502   48.00000    0.00000   100%  7570  701s
     5     7    0.00000    4 2657   48.00000    0.00000   100%  2053  707s
     8    10    0.00000    5 2040   48.00000    0.00000   100%  1534  710s
     9    11    0.00000    6 2525   48.00000    0.00000   100%  1644  715s
    15    17    0.00000    9 2659   48.00000    0.00000   100%  1503  724s
    17    19    0.00000   10 2267   48.00000    0.00000   100%  1511  728s
    18    20    0.00000   11 3120   48.00000    0.00000   100%  1779  737s
    19    21    0.00000   11 2406   48.00000    0.00000   100%  1896  741s
    20    22    0.00000   12 3086   48.00000    0.00000   100%  1957  747s
    22    24    0.00000   13 2971   48.00000    0.00000   100%  2070  758s
    24    26    0.00000   14 2590   48.00000    0.00000   100%  1946  760s
    26    28    0.00000   15 3311   48.00000    0.00000   100%  2137  777s
    27    29    0.00000   16 2817   48.00000    0.00000   100%  2111  815s
    28    30    0.00000   17 2691   48.00000    0.00000   100%  2216  826s
    30    32    0.00000   18 4685   48.00000    0.00000   100%  2473  852s
    31    33    0.00000   19 2858   48.00000    0.00000   100%  2506  858s
    32    34    0.00000   19 3246   48.00000    0.00000   100%  2643  871s
    33    35    0.00000   20 2957   48.00000    0.00000   100%  2729  881s
    34    36    0.00000   20 5402   48.00000    0.00000   100%  4557 1033s
    35    37    0.00000   21 6574   48.00000    0.00000   100%  5039 1081s
    36    38    0.00000   21 3097   48.00000    0.00000   100%  5037 1095s
    37    39    0.00000   22 3333   48.00000    0.00000   100%  4949 1101s
    38    40    0.00000   22 6307   48.00000    0.00000   100%  5292 1149s
    39    41    0.00000   23 3366   48.00000    0.00000   100%  5210 1154s
    40    42    0.00000   24 3506   48.00000    0.00000   100%  5264 1181s
    41    43    0.00000   24 6862   48.00000    0.00000   100%  5468 1223s
    42    44    0.00000   25 4914   48.00000    0.00000   100%  5414 1237s
    43    45    0.00000   25 6648   48.00000    0.00000   100%  5506 1283s
    44    46    0.00000   26 4927   48.00000    0.00000   100%  5605 1331s
    45    47    0.00000   27 5242   48.00000    0.00000   100%  5555 1346s
    46    48    0.00000   27 5432   48.00000    0.00000   100%  5628 1381s
    49    51    0.00000   29 5873   48.00000    0.00000   100%  5388 1405s
    50    52    0.00000   30 3067   48.00000    0.00000   100%  5965 1463s
    51    53    0.00000   31 3341   48.00000    0.00000   100%  5885 1468s
    52    54    0.00000   31 5565   48.00000    0.00000   100%  6080 1499s
    53    55    0.00000   32 4243   48.00000    0.00000   100%  6250 1537s

Cutting planes:
  Cover: 67
  Implied bound: 73
  Clique: 278
  MIR: 110
  StrongCG: 3

Explored 54 nodes (427292 simplex iterations) in 1800.05 seconds
Thread count was 1 (of 4 available processors)

Solution count 2: 48 104 

Time limit reached
Best objective 4.800000000000e+01, best bound 0.000000000000e+00, gap 100.0000%
